(declare-const |return@pos'| Int)
(declare-const |return@width'| Int)
(declare-const |return'| Int)
(declare-const |x'| Int)
(assert (exists ((type_err?1 Int) (type_err?2 Int) (havoc?3 Int) (x?4 Int))
         (and (= x?4 0) (= x?4 0) (= (+ (- type_err?1) |return@width'|) 0)
                (= (+ (- type_err?2) |return@pos'|) 0)
                (= (+ (- havoc?3) |return'|) 0) (= |x'| 0))))
(check-sat)
